
  32    1
  10

   0   0  14 2 3 4 5 6 9 10 11 12 13 15 16 18 21 
   7   8   7 31 28 24 20 19 14 8 
   9   5   5 31 24 20 8 7 
  10   4   5 28 24 19 14 8 
   9   6   8 29 28 27 26 25 24 23 19 
   1   7   6 30 27 25 23 19 17 
   7   6   6 30 28 26 25 23 19 
   9   7   6 30 29 27 26 23 22 
   6   9   5 26 25 24 23 19 
   8  10   4 27 26 24 22 
   8  10   3 31 24 20 
   3   9   3 25 23 19 
   5  10   2 26 17 
   1   8   3 27 25 22 
   9   8   3 31 23 22 
   7   8   3 28 25 22 
   1   3   2 24 22 
   8  10   2 31 29 
   9   5   1 22 
  10  10   1 22 
  10  10   1 23 
   2  10   1 32
   7  10   1 32
   4  10   1 32
   5   6   1 32
   2   9   1 32
   8  10   1 32
   5  10   1 32
   3   5   1 32
   1   9   1 32
   2   8   1 32
   0   0   0 
